7410
3290
7859
4723
1026
9122
1082
6363
1770
9393
7929
4674
4135
9279
9053
4248
5057
8589
9259
3873
8481
9253
1323
3883
901
7590
8721
3620
4168
2580
3175
2587
3806
2145
6455
2383
5306
1245
6102
8027
9064
6629
7195
8684
8769
9059
2679
1997
4596
7394
